p cnf 180 344               
-5 -4 -10 0
10 -12 0
4 5 -11 0
11 -12 0
12 -19 0
-7 -6 -13 0
13 -15 0
6 7 -14 0
14 -15 0
15 -19 0
-9 -8 -16 0
16 -18 0
8 9 -17 0
17 -18 0
18 -19 0
-4 -20 0
5 -20 0
4 -5 20 0
-1 20 -21 0
1 -20 -21 0
20 -20 -21 0
21 -26 0
-6 -22 0
7 -22 0
6 -7 22 0
-2 22 -23 0
2 -22 -23 0
22 -22 -23 0
23 -26 0
-8 -24 0
9 -24 0
8 -9 24 0
-3 24 -25 0
3 -24 -25 0
24 -24 -25 0
25 -26 0
3 -32 0
-9 -27 0
-7 -27 0
-5 -27 0
9 7 5 27 0
27 -29 0
4 -28 0
6 -28 0
8 -28 0
-4 -6 -8 28 0
28 -29 0
-27 -28 29 0
29 -32 0
-3 -29 32 0
-32 -37 0
29 -37 0
32 37 -38 0
38 39 0
2 -31 0
29 -31 0
-2 -29 31 0
-31 -35 0
29 -35 0
31 35 -36 0
36 39 0
1 -30 0
29 -30 0
-1 -29 30 0
-30 -33 0
29 -33 0
30 33 -34 0
34 39 0
-39 -41 0
30 -41 0
-39 -43 0
31 -43 0
-39 -45 0
32 -45 0
3 -51 0
-8 -46 0
-7 -46 0
-5 -46 0
8 7 5 46 0
46 -48 0
4 -47 0
6 -47 0
9 -47 0
-4 -6 -9 47 0
47 -48 0
-46 -47 48 0
48 -51 0
-3 -48 51 0
-51 -56 0
48 -56 0
51 56 -57 0
57 58 0
2 -50 0
48 -50 0
-2 -48 50 0
-50 -54 0
48 -54 0
50 54 -55 0
55 58 0
1 -49 0
48 -49 0
-1 -48 49 0
-49 -52 0
48 -52 0
49 52 -53 0
53 58 0
-58 -60 0
49 -60 0
-58 -62 0
50 -62 0
-58 -63 0
56 -63 0
3 -70 0
-9 -65 0
-6 -65 0
-5 -65 0
9 6 5 65 0
65 -67 0
4 -66 0
7 -66 0
8 -66 0
-4 -7 -8 66 0
66 -67 0
-65 -66 67 0
67 -70 0
-3 -67 70 0
-70 -75 0
67 -75 0
70 75 -76 0
76 77 0
2 -69 0
67 -69 0
-2 -67 69 0
-69 -73 0
67 -73 0
69 73 -74 0
74 77 0
1 -68 0
67 -68 0
-1 -67 68 0
-68 -71 0
67 -71 0
68 71 -72 0
72 77 0
-77 -79 0
68 -79 0
-77 -80 0
73 -80 0
-77 -83 0
70 -83 0
3 -89 0
-8 -84 0
-6 -84 0
-5 -84 0
8 6 5 84 0
84 -86 0
4 -85 0
7 -85 0
9 -85 0
-4 -7 -9 85 0
85 -86 0
-84 -85 86 0
86 -89 0
-3 -86 89 0
-89 -94 0
86 -94 0
89 94 -95 0
95 96 0
2 -88 0
86 -88 0
-2 -86 88 0
-88 -92 0
86 -92 0
88 92 -93 0
93 96 0
1 -87 0
86 -87 0
-1 -86 87 0
-87 -90 0
86 -90 0
87 90 -91 0
91 96 0
-96 -98 0
87 -98 0
-96 -99 0
92 -99 0
-96 -101 0
94 -101 0
3 -108 0
-9 -103 0
-7 -103 0
-4 -103 0
9 7 4 103 0
103 -105 0
5 -104 0
6 -104 0
8 -104 0
-5 -6 -8 104 0
104 -105 0
-103 -104 105 0
105 -108 0
-3 -105 108 0
-108 -113 0
105 -113 0
108 113 -114 0
114 115 0
2 -107 0
105 -107 0
-2 -105 107 0
-107 -111 0
105 -111 0
107 111 -112 0
112 115 0
1 -106 0
105 -106 0
-1 -105 106 0
-106 -109 0
105 -109 0
106 109 -110 0
110 115 0
-115 -116 0
109 -116 0
-115 -119 0
107 -119 0
-115 -121 0
108 -121 0
3 -127 0
-8 -122 0
-7 -122 0
-4 -122 0
8 7 4 122 0
122 -124 0
5 -123 0
6 -123 0
9 -123 0
-5 -6 -9 123 0
123 -124 0
-122 -123 124 0
124 -127 0
-3 -124 127 0
-127 -132 0
124 -132 0
127 132 -133 0
133 134 0
2 -126 0
124 -126 0
-2 -124 126 0
-126 -130 0
124 -130 0
126 130 -131 0
131 134 0
1 -125 0
124 -125 0
-1 -124 125 0
-125 -128 0
124 -128 0
125 128 -129 0
129 134 0
-134 -135 0
128 -135 0
-134 -138 0
126 -138 0
-134 -139 0
132 -139 0
3 -146 0
-9 -141 0
-6 -141 0
-4 -141 0
9 6 4 141 0
141 -143 0
5 -142 0
7 -142 0
8 -142 0
-5 -7 -8 142 0
142 -143 0
-141 -142 143 0
143 -146 0
-3 -143 146 0
-146 -151 0
143 -151 0
146 151 -152 0
152 153 0
2 -145 0
143 -145 0
-2 -143 145 0
-145 -149 0
143 -149 0
145 149 -150 0
150 153 0
1 -144 0
143 -144 0
-1 -143 144 0
-144 -147 0
143 -147 0
144 147 -148 0
148 153 0
-153 -154 0
147 -154 0
-153 -156 0
149 -156 0
-153 -159 0
146 -159 0
3 -165 0
-8 -160 0
-6 -160 0
-4 -160 0
8 6 4 160 0
160 -162 0
5 -161 0
7 -161 0
9 -161 0
-5 -7 -9 161 0
161 -162 0
-160 -161 162 0
162 -165 0
-3 -162 165 0
-165 -170 0
162 -170 0
165 170 -171 0
171 172 0
2 -164 0
162 -164 0
-2 -162 164 0
-164 -168 0
162 -168 0
164 168 -169 0
169 172 0
1 -163 0
162 -163 0
-1 -162 163 0
-163 -166 0
162 -166 0
163 166 -167 0
167 172 0
-172 -173 0
166 -173 0
-172 -175 0
168 -175 0
-172 -177 0
170 -177 0
41 43 45 60 62 63 79 80 83 98 99 101 116 119 121 135 138 139 154 156 159 173 175 177 -179 0
19 0
26 0
179 0
